s td 14 47 60
b 1 1 2 3 4 5 6 7 8 9 10 11 12 13 14 15 17 18 20 21 22 23 24 25 26 30 31 32 33 34 35 36 37 39 40 41 42 44 46 47 49 51 52 56 57 58 59 60
b 2 1 3 4 5 6 7 8 9 10 11 12 13 14 15 17 18 19 20 21 22 23 24 25 26 30 31 32 33 34 35 36 37 40 41 42 44 46 47 49 51 52 56 57 58 59 60
b 3 1 3 4 5 6 7 8 9 10 11 12 13 14 15 17 18 19 20 22 23 24 25 26 30 31 32 33 34 35 36 38 40 41 42 44 46 47 49 51 52 56 57 58 59 60
b 4 3 4 5 6 7 8 9 10 11 12 13 14 15 17 18 19 20 22 23 24 25 26 29 30 31 32 33 34 36 38 40 41 42 44 46 47 51 52 56 57 59
b 5 3 4 6 7 8 9 10 11 12 14 15 16 18 20 24 25 26 29 31 32 33 34 36 40 42 44 46 47 52 56
b 6 3 4 6 8 9 12 14 15 16 18 20 24 25 26 29 31 32 34 36 42 44 46 47 52 53
b 7 1 2 3 4 5 6 7 8 9 10 11 12 13 14 15 17 18 20 21 22 23 24 25 26 30 31 32 33 34 35 36 37 39 40 41 42 44 46 48 49 51 52 56 57 58 59 60
b 8 1 2 3 4 5 6 7 8 9 10 11 12 13 14 15 17 18 20 21 22 23 24 25 26 28 30 31 32 33 34 35 36 37 39 40 41 42 44 46 48 49 51 56 57 58 59
b 9 1 3 4 5 6 7 8 9 10 11 12 13 14 15 17 18 20 21 22 23 24 25 26 28 30 31 32 33 34 35 36 37 39 40 41 42 43 44 46 48 49 51 56 57 58
b 10 1 3 4 5 6 7 8 9 10 12 13 14 15 17 18 20 21 22 23 24 25 26 28 30 31 32 33 34 35 36 37 39 40 41 42 43 44 45 46 48 49 51 56 57 58
b 11 1 3 4 5 7 8 9 10 12 13 14 15 17 18 20 21 23 24 25 26 28 30 31 32 33 34 35 36 37 39 40 41 42 43 44 45 46 48 49 50 51 56 57 58
b 12 1 3 4 5 7 8 10 12 13 14 15 17 18 20 21 23 24 25 26 27 28 30 31 32 33 34 35 37 40 41 42 43 44 45 46 48 49 50 51 56
b 13 1 5 7 8 10 12 13 15 17 18 21 23 24 25 26 27 28 30 31 32 33 34 35 37 40 42 43 44 45 46 49 51 55 56
b 14 1 2 4 6 9 11 12 13 15 18 20 21 22 23 25 26 28 30 31 32 35 36 39 40 41 46 48 49 54 57 58 59
1 2
1 7
2 3
3 4
4 5
5 6
7 8
8 9
8 14
9 10
10 11
11 12
12 13
